c NeuroCodeBench 2.0 CNF formula with verdict Unsat
p cnf 59 92
-1 7 -54 45 16 59 -22 -34 0
1 -41 -3 -52 -27 4 0
1 41 38 -39 55 -11 0
-1 7 -54 45 16 -59 37 42 44 0
1 41 38 39 5 27 0
-1 7 -54 45 -16 -43 0
1 -41 3 -11 -56 17 35 43 54 -32 0
1 41 -38 -10 3 20 0
1 41 -38 10 -31 53 0
1 -41 3 -11 -56 17 35 43 -54 42 -39 0
1 -41 -3 52 -17 -31 -25 -44 49 0
-1 7 -54 45 -16 43 -46 0
-1 7 -54 45 16 -59 37 -42 0
1 -41 -3 52 -17 -31 25 33 0
-1 7 -54 -45 38 -28 53 0
-1 7 -54 45 16 59 22 0
-1 7 -54 45 16 59 -22 34 0
1 -41 3 -11 -56 17 35 -43 26 0
1 41 38 -39 55 11 -28 -29 0
-1 7 -54 -45 38 28 0
1 41 -38 10 -31 -53 0
1 41 38 39 -5 24 31 0
1 -41 -3 52 -17 -31 25 -33 12 0
1 -41 3 -11 -56 -17 0
-1 -7 -56 -15 -17 -36 0
1 41 38 39 -5 24 -31 0
-1 7 -54 -45 38 -28 -53 0
1 41 38 39 -5 -24 11 0
-1 -7 -56 15 11 -51 -59 0
1 41 -38 10 31 0
1 -41 3 11 44 -38 -35 -24 0
1 -41 -3 -52 -27 -4 0
1 41 38 -39 55 11 28 0
-1 -7 -56 15 11 51 48 12 -39 -47 0
1 41 38 39 5 -27 0
-1 -7 -56 15 -11 -9 0
-1 7 -54 45 16 -59 37 42 -44 0
1 -41 -3 -52 27 -40 0
-1 -7 -56 15 11 51 48 12 -39 47 0
-1 -7 -56 15 -11 9 0
1 -41 -3 52 17 -29 36 0
-1 -7 -56 15 11 51 -48 -3 0
1 -41 -3 52 17 29 -44 45 0
-1 -7 56 17 0
1 -41 -3 52 -17 31 0
1 -41 3 11 -44 -20 -26 0
-1 -7 -56 15 11 51 48 -12 0
-1 -7 56 -17 0
1 -41 -3 52 17 29 44 11 0
1 41 -38 -10 3 -20 0
1 -41 -3 52 17 29 44 -11 31 0
1 -41 -3 -52 27 40 30 0
-1 7 -54 -45 -38 28 0
1 -41 3 -11 -56 17 35 43 -54 -42 0
-1 -7 -56 -15 -17 36 0
1 -41 -3 52 -17 -31 -25 44 0
1 -41 3 11 44 -38 35 -9 0
-1 -7 -56 15 11 -51 59 0
-1 7 -54 45 16 -59 -37 14 0
1 -41 3 11 44 -38 35 9 0
1 -41 -3 52 17 29 44 -11 -31 0
1 41 38 -39 -55 0
1 41 -38 -10 -3 0
-1 -7 -56 -15 17 33 -34 0
-1 7 -54 45 16 -59 -37 -14 0
1 -41 3 11 -44 20 -56 0
1 41 38 -39 55 11 -28 29 0
-1 7 54 -17 0
-1 -7 -56 15 11 51 48 12 39 0
1 -41 3 -11 56 30 0
1 -41 -3 52 -17 -31 25 -33 -12 0
-1 -7 -56 15 11 51 -48 3 0
1 -41 -3 -52 27 40 -30 0
1 -41 3 11 -44 20 56 0
1 -41 3 -11 -56 17 35 43 54 32 0
1 -41 3 11 -44 -20 26 0
1 -41 3 -11 -56 17 -35 0
-1 7 -54 45 -16 43 46 0
1 -41 3 11 44 -38 -35 24 -42 0
-1 -7 -56 -15 17 33 34 0
1 41 38 39 -5 -24 -11 0
1 -41 -3 52 -17 -31 -25 -44 -49 0
1 -41 -3 52 17 29 -44 -45 0
1 -41 -3 52 17 -29 -36 0
1 -41 3 -11 56 -30 0
-1 -7 -56 -15 17 -33 0
1 -41 3 -11 -56 17 35 43 -54 42 39 0
-1 7 54 17 0
-1 7 -54 -45 -38 -28 0
1 -41 3 11 44 -38 -35 24 42 0
1 -41 3 -11 -56 17 35 -43 -26 0
1 -41 3 11 44 38 0
